mixintcount/benchmarks/random_v2l/3_3_2818.smt2
(set-logic QF_LIA)
(set-info :ran/ran2.smt2)
(set-info :smt-lib-version 2.0)
(declare-fun x1 () Int)
(declare-fun x2 () Int)
(declare-fun x3 () Int)
(assert (<= (+ (* 2 x1) (* (- 6) x2) (* (- 3) x3) ) 2619))
(assert (<= (+ (* 0 x1) (* (- 4) x2) (* (- 9) x3) ) 861))
(assert (<= (+ (* (- 10) x1) (* 5 x2) (* 1 x3) ) (- 2314)))
(assert (<= (+ (* 6 x1) (* 4 x2) (* (- 1) x3) ) 1300))
(assert (<= (+ (* (- 7) x1) (* (- 3) x2) (* (- 5) x3) ) 2124))
(assert (<= (+ (* 6 x1) (* (- 8) x2) (* 9 x3) ) 985))
(assert (<= (+ (* 1 x1) (* 0 x2) (* 0 x3) ) 2818))
(assert (<= (+ (* (- 1) x1) (* 0 x2) (* 0 x3) ) 2818))
(assert (<= (+ (* 0 x1) (* 1 x2) (* 0 x3) ) 2818))
(assert (<= (+ (* 0 x1) (* (- 1) x2) (* 0 x3) ) 2818))
(assert (<= (+ (* 0 x1) (* 0 x2) (* 1 x3) ) 2818))
(assert (<= (+ (* 0 x1) (* 0 x2) (* (- 1) x3) ) 2818))
