mixintcount/benchmarks/random_v2l/3_3_2818.in
12 5
#	x1	x2	x3;		0 = Real; 1 = Integer
	1	1	1
1	2	-6	-3	2619
1	0	-4	-9	861
1	-10	5	1	-2314
1	6	4	-1	1300
1	-7	-3	-5	2124
1	6	-8	9	985
1	1	0	0	2818
1	-1	0	0	2818
1	0	1	0	2818
1	0	-1	0	2818
1	0	0	1	2818
1	0	0	-1	2818
